20 1 4
651 525 190 585 697 140 853 571 908 740 221 415 565 99 785 724 978 589 906 388 
727 779 156 115 299 763 692 558 306 1000 184 956 524 373 541 220 512 394 791 420 
134 12 834 698 110 618 422 87 207 327 475 933 106 631 47 404 394 739 961 699 
738 144 655 262 517 195 482 28 589 272 447 722 283 281 420 393 898 841 480 105 
1680 9540 370 2730 5850 840 6760 9780 8220 6370 6770 5600 7800 3320 8210 2970 5270 3020 3240 1150 
49740
